p ocr 780 743 1522
1 922
1 1397
2 922
3 922
4 922
5 922
6 922
7 922
8 922
9 922
10 922
11 922
12 922
13 922
14 922
15 922
16 922
17 922
18 922
19 922
20 922
21 922
22 922
23 922
24 922
25 922
26 922
27 922
28 922
29 922
30 922
31 922
32 922
33 922
34 922
35 922
36 922
37 922
38 922
39 922
40 922
41 922
42 922
43 922
44 922
45 922
46 922
47 922
48 922
49 922
50 922
51 922
52 922
53 922
54 922
55 922
56 922
57 922
58 922
59 922
60 922
61 922
62 922
63 922
64 922
65 922
66 922
67 922
68 922
69 922
70 922
71 922
72 922
73 922
74 922
75 922
76 922
77 922
78 922
79 922
80 922
81 922
82 922
83 922
84 922
85 922
86 922
87 922
88 922
89 922
90 922
91 922
92 922
93 922
94 922
95 922
96 922
97 922
98 922
99 922
100 922
101 922
102 922
103 922
104 922
105 922
106 922
107 922
108 922
109 922
110 922
111 922
112 922
113 922
114 922
115 922
116 922
117 922
118 922
119 922
120 922
121 922
122 922
123 922
124 922
125 922
126 922
127 922
128 922
129 922
130 922
131 922
132 922
133 922
134 922
135 922
136 922
137 922
138 922
139 922
140 922
141 922
142 922
143 922
144 922
145 922
146 922
147 922
148 922
149 922
150 922
151 922
152 922
153 922
154 922
155 922
156 922
157 922
158 922
159 922
160 922
161 922
162 922
163 922
164 922
165 922
166 922
167 922
168 922
169 922
170 922
171 922
172 922
173 922
174 922
175 922
176 922
177 922
178 922
179 922
180 922
181 922
182 922
183 922
184 922
185 922
186 922
187 922
188 922
189 922
190 922
191 922
192 922
193 922
194 922
195 922
196 922
197 922
198 922
199 922
200 922
201 922
202 922
203 922
204 922
205 922
206 922
207 922
208 922
209 922
210 922
211 922
212 922
213 922
214 922
215 922
216 922
217 922
218 922
219 922
220 922
221 922
222 922
223 922
224 922
225 922
226 922
227 922
228 922
229 922
230 922
231 922
232 922
233 922
234 922
235 922
236 922
237 922
238 922
239 922
240 922
241 922
242 922
243 922
244 922
245 922
246 922
247 922
248 922
249 922
250 922
251 922
252 922
253 922
254 922
255 922
256 922
257 922
258 922
259 922
260 922
261 922
262 922
263 922
264 922
265 922
266 922
267 922
268 922
269 922
270 922
271 922
272 922
273 922
274 922
275 922
276 922
277 922
278 922
279 922
280 922
281 922
282 922
283 922
284 922
285 922
286 922
287 922
288 922
289 922
290 922
291 922
292 922
293 922
294 922
295 922
296 922
297 922
298 922
299 922
300 922
301 922
302 922
303 922
304 922
305 922
306 922
307 922
308 922
309 922
310 922
311 922
312 922
313 922
314 922
315 922
316 922
317 922
318 922
319 922
320 922
321 922
322 922
323 922
324 922
325 922
326 922
327 922
328 922
329 922
330 922
331 922
332 922
333 922
334 922
335 922
336 922
337 922
338 922
339 922
340 922
341 922
342 922
343 922
344 922
345 922
346 922
347 922
348 922
349 922
350 922
351 922
352 922
353 922
354 922
355 922
356 922
357 922
358 922
359 922
360 922
361 922
362 922
363 922
364 922
365 922
366 922
367 922
368 922
369 922
370 922
371 922
372 922
373 922
374 922
375 922
376 922
377 922
378 922
379 922
380 922
381 922
382 922
383 922
384 922
385 922
386 922
387 922
388 922
389 922
390 922
391 922
392 922
393 922
394 922
395 922
396 922
397 922
398 922
399 922
400 922
401 922
402 922
403 922
404 922
405 922
406 922
407 922
408 922
409 922
410 922
411 922
412 922
413 922
414 922
415 922
416 922
417 922
418 922
419 922
420 922
421 922
422 922
423 922
424 922
425 922
426 922
427 922
428 922
429 922
430 922
431 922
432 922
433 922
434 922
435 922
436 922
437 922
438 922
439 922
440 922
441 922
442 922
443 922
444 922
445 922
446 922
447 922
448 922
449 922
450 922
451 922
452 922
453 922
454 922
455 922
456 922
457 922
458 922
459 922
460 922
461 922
462 922
463 922
464 922
465 922
466 922
467 922
468 922
469 922
470 922
471 922
472 922
473 922
474 922
475 922
476 922
477 922
478 922
479 922
480 922
481 922
482 922
483 922
484 922
485 922
486 922
487 922
488 922
489 922
490 922
491 922
492 922
493 922
494 922
495 922
496 922
497 922
498 922
499 922
500 922
501 922
502 922
503 922
504 922
505 922
506 922
507 922
508 922
509 922
510 922
511 922
512 922
513 922
514 922
515 922
516 922
517 922
518 922
519 922
520 922
521 922
522 922
523 922
524 922
525 922
526 922
527 922
528 922
529 922
530 922
531 922
532 922
533 922
534 922
535 922
536 922
537 922
538 922
539 922
540 922
541 922
542 922
543 922
544 922
545 922
546 922
547 922
548 922
549 922
550 922
551 922
552 922
553 922
554 922
555 922
556 922
557 922
558 922
559 922
560 922
561 922
562 922
563 922
564 922
565 922
566 922
567 922
568 922
569 922
570 922
571 922
572 922
573 922
574 922
575 922
576 922
577 922
578 922
579 922
580 922
581 922
582 922
583 922
584 922
585 922
586 922
587 922
588 922
589 922
590 922
591 922
592 922
593 922
594 922
595 922
596 922
597 922
598 922
599 922
600 922
601 922
602 922
603 922
604 922
605 922
606 922
607 922
608 922
609 922
610 922
611 922
612 922
613 922
614 922
615 922
616 922
617 922
618 922
619 922
620 922
621 922
622 922
623 922
624 922
625 922
626 922
627 922
628 922
629 922
630 922
631 922
632 922
633 922
634 922
635 922
636 922
637 922
638 922
639 922
640 922
641 922
642 922
643 922
644 922
645 922
646 922
647 922
648 922
649 922
650 922
651 922
652 922
653 922
654 922
655 922
656 922
657 922
658 922
659 922
660 922
661 922
662 922
663 922
664 922
665 922
666 922
667 922
668 922
669 922
670 922
671 922
672 922
673 922
674 922
675 922
676 922
677 922
678 922
679 922
680 922
681 922
682 922
683 922
684 922
685 922
686 922
687 922
688 922
689 922
690 922
691 922
692 922
693 922
694 922
695 922
696 922
697 922
698 922
699 922
700 922
701 922
702 922
703 922
704 922
705 922
706 922
707 922
708 922
709 922
710 922
711 922
712 922
713 922
714 922
715 922
716 922
717 922
718 922
719 922
720 922
721 922
722 922
723 922
724 922
725 922
726 922
727 922
728 922
729 922
730 922
731 922
732 922
733 922
734 922
735 922
736 922
737 922
738 922
739 922
740 922
741 922
742 781
742 782
742 783
742 784
742 785
742 786
742 787
742 788
742 789
742 790
742 791
742 792
742 793
742 794
742 795
742 796
742 797
742 798
742 799
742 800
742 801
742 802
742 803
742 804
742 805
742 806
742 807
742 808
742 809
742 810
742 811
742 812
742 813
742 814
742 815
742 816
742 817
742 818
742 819
742 820
742 821
742 822
742 823
742 824
742 825
742 826
742 827
742 828
742 829
742 830
742 831
742 832
742 833
742 834
742 835
742 836
742 837
742 838
742 839
742 840
742 841
742 842
742 843
742 844
742 845
742 846
742 847
742 848
742 849
742 850
742 851
742 852
742 853
742 854
742 855
742 856
742 857
742 858
742 859
742 860
742 861
742 862
742 863
742 864
742 865
742 866
742 867
742 868
742 869
742 870
742 871
742 872
742 873
742 874
742 875
742 876
742 877
742 878
742 879
742 880
742 881
742 882
742 883
742 884
742 885
742 886
742 887
742 888
742 889
742 890
742 891
742 892
742 893
742 894
742 895
742 896
742 897
742 898
742 899
742 900
742 901
742 902
742 903
742 904
742 905
742 906
742 907
742 908
742 909
742 910
742 911
742 912
742 913
742 914
742 915
742 916
742 917
742 918
742 919
742 920
742 921
742 922
742 923
742 924
742 925
742 926
742 927
742 928
742 929
742 930
742 931
742 932
742 933
742 934
742 935
742 936
742 937
742 938
742 939
742 940
742 941
742 942
742 943
742 944
742 945
742 946
742 947
742 948
742 949
742 950
742 951
742 952
742 953
742 954
742 955
742 956
742 957
742 958
742 959
742 960
742 961
742 962
742 963
742 964
742 965
742 966
742 967
742 968
742 969
742 970
742 971
742 972
742 973
742 974
742 975
742 976
742 977
742 978
742 979
742 980
742 981
742 982
742 983
742 984
742 985
742 986
742 987
742 988
742 989
742 990
742 991
742 992
742 993
742 994
742 995
742 996
742 997
742 998
742 999
742 1000
742 1001
742 1002
742 1003
742 1004
742 1005
742 1006
742 1007
742 1008
742 1009
742 1010
742 1011
742 1012
742 1013
742 1014
742 1015
742 1016
742 1017
742 1018
742 1019
742 1020
742 1021
742 1022
742 1023
742 1024
742 1025
742 1026
742 1027
742 1028
742 1029
742 1030
742 1031
742 1032
742 1033
742 1034
742 1035
742 1036
742 1037
742 1038
742 1039
742 1040
742 1041
742 1042
742 1043
742 1044
742 1045
742 1046
742 1047
742 1048
742 1049
742 1050
742 1051
742 1052
742 1053
742 1054
742 1055
742 1056
742 1057
742 1058
742 1059
742 1060
742 1061
742 1062
742 1063
742 1064
742 1065
742 1066
742 1067
742 1068
742 1069
742 1070
742 1071
742 1072
742 1073
742 1074
742 1075
742 1076
742 1077
742 1078
742 1079
742 1080
742 1081
742 1082
742 1083
742 1084
742 1085
742 1086
742 1087
742 1088
742 1089
742 1090
742 1091
742 1092
742 1093
742 1094
742 1095
742 1096
742 1097
742 1098
742 1099
742 1100
742 1101
742 1102
742 1103
742 1104
742 1105
742 1106
742 1107
742 1108
742 1109
742 1110
742 1111
742 1112
742 1113
742 1114
742 1115
742 1116
742 1117
742 1118
742 1119
742 1120
742 1121
742 1122
742 1123
742 1124
742 1125
742 1126
742 1127
742 1128
742 1129
742 1130
742 1131
742 1132
742 1133
742 1134
742 1135
742 1136
742 1137
742 1138
742 1139
742 1140
742 1141
742 1142
742 1143
742 1144
742 1145
742 1146
742 1147
742 1148
742 1149
742 1150
742 1151
742 1152
742 1153
742 1154
742 1155
742 1156
742 1157
742 1158
742 1159
742 1160
742 1161
742 1162
742 1163
742 1164
742 1165
742 1166
742 1167
742 1168
742 1169
742 1170
742 1171
742 1172
742 1173
742 1174
742 1175
742 1176
742 1177
742 1178
742 1179
742 1180
742 1181
742 1182
742 1183
742 1184
742 1185
742 1186
742 1187
742 1188
742 1189
742 1190
742 1191
742 1192
742 1193
742 1194
742 1195
742 1196
742 1197
742 1198
742 1199
742 1200
742 1201
742 1202
742 1203
742 1204
742 1205
742 1206
742 1207
742 1208
742 1209
742 1210
742 1211
742 1212
742 1213
742 1214
742 1215
742 1216
742 1217
742 1218
742 1219
742 1220
742 1221
742 1222
742 1223
742 1224
742 1225
742 1226
742 1227
742 1228
742 1229
742 1230
742 1231
742 1232
742 1233
742 1234
742 1235
742 1236
742 1237
742 1238
742 1239
742 1240
742 1241
742 1242
742 1243
742 1244
742 1245
742 1246
742 1247
742 1248
742 1249
742 1250
742 1251
742 1252
742 1253
742 1254
742 1255
742 1256
742 1257
742 1258
742 1259
742 1260
742 1261
742 1262
742 1263
742 1264
742 1265
742 1266
742 1267
742 1268
742 1269
742 1270
742 1271
742 1272
742 1273
742 1274
742 1275
742 1276
742 1277
742 1278
742 1279
742 1280
742 1281
742 1282
742 1283
742 1284
742 1285
742 1286
742 1287
742 1288
742 1289
742 1290
742 1291
742 1292
742 1293
742 1294
742 1295
742 1296
742 1297
742 1298
742 1299
742 1300
742 1301
742 1302
742 1303
742 1304
742 1305
742 1306
742 1307
742 1308
742 1309
742 1310
742 1311
742 1312
742 1313
742 1314
742 1315
742 1316
742 1317
742 1318
742 1319
742 1320
742 1321
742 1322
742 1323
742 1324
742 1325
742 1326
742 1327
742 1328
742 1329
742 1330
742 1331
742 1332
742 1333
742 1334
742 1335
742 1336
742 1337
742 1338
742 1339
742 1340
742 1341
742 1342
742 1343
742 1344
742 1345
742 1346
742 1347
742 1348
742 1349
742 1350
742 1351
742 1352
742 1353
742 1354
742 1355
742 1356
742 1357
742 1358
742 1359
742 1360
742 1361
742 1362
742 1363
742 1364
742 1365
742 1366
742 1367
742 1368
742 1369
742 1370
742 1371
742 1372
742 1373
742 1374
742 1375
742 1376
742 1377
742 1378
742 1379
742 1380
742 1381
742 1382
742 1383
742 1384
742 1385
742 1386
742 1387
742 1388
742 1389
742 1390
742 1391
742 1392
742 1393
742 1394
742 1395
742 1396
742 1398
742 1399
742 1400
742 1401
742 1402
742 1403
742 1404
742 1405
742 1406
742 1407
742 1408
742 1409
742 1410
742 1411
742 1412
742 1413
742 1414
742 1415
742 1416
742 1417
742 1418
742 1419
742 1420
742 1421
742 1422
742 1423
742 1424
742 1425
742 1426
742 1427
742 1428
742 1429
742 1430
742 1431
742 1432
742 1433
742 1434
742 1435
742 1436
742 1437
742 1438
742 1439
742 1440
742 1441
742 1442
742 1443
742 1444
742 1445
742 1446
742 1447
742 1448
742 1449
742 1450
742 1451
742 1452
742 1453
742 1454
742 1455
742 1456
742 1457
742 1458
742 1459
742 1460
742 1461
742 1462
742 1463
742 1464
742 1465
742 1466
742 1467
742 1468
742 1469
742 1470
742 1471
742 1472
742 1473
742 1474
742 1475
742 1476
742 1477
742 1478
742 1479
742 1480
742 1481
742 1482
742 1483
742 1484
742 1485
742 1486
742 1487
742 1488
742 1489
742 1490
742 1491
742 1492
742 1493
742 1494
742 1495
742 1496
742 1497
742 1498
742 1499
742 1500
742 1501
742 1502
742 1503
742 1504
742 1505
742 1506
742 1507
742 1508
742 1509
742 1510
742 1511
742 1512
742 1513
742 1514
742 1515
742 1516
742 1517
742 1518
742 1519
742 1520
742 1521
742 1522
742 1523
743 1397
744 1397
745 1397
746 1397
747 1397
748 1397
749 1397
750 1397
751 1397
752 1397
753 1397
754 1397
755 1397
756 1397
757 1397
758 1397
759 1397
760 1397
761 1397
762 1397
763 1397
764 1397
765 1397
766 1397
767 1397
768 1397
769 1397
770 1397
771 1397
772 1397
773 1397
774 1397
775 1397
776 1397
777 1397
778 1397
779 1397
780 1397
